decision_x1=[0,2];
decision_x2=[0,2];
decision_x3=[0,2];
decision_x4=[0,2];
decision_x5=[0,2];
decision_x6=[0,2];
decision_x7=[0,2];
decision_x8=[0,2];
decision_x9=[0,2];
decision_x10=[0,2];
random_y1=[0,2];
random_y2=[0,2];
constraint_x2_x1=[
0,1,0.5|
0,2,1.6|
1,0,2|
1,2,9.5|
2,0,9.2|
2,1,0.56|
];
constraint_x4_x1=[
0,1,10|
0,2,4.1|
1,0,7.4|
1,2,5.2|
2,0,3.4|
2,1,6|
];
constraint_x4_x3=[
0,1,4.1|
0,2,0.023|
1,0,3.6|
1,2,2.2|
2,0,2.7|
2,1,8.4|
];
constraint_x5_x1=[
0,1,7.5|
0,2,7.4|
1,0,3.1|
1,2,1.3|
2,0,6.6|
2,1,8.4|
];
constraint_x5_x2=[
0,1,4.3|
0,2,7.2|
1,0,9.2|
1,2,1.3|
2,0,2.7|
2,1,9.1|
];
constraint_x5_x3=[
0,1,7.3|
0,2,2.1|
1,0,2.3|
1,2,5.8|
2,0,3.5|
2,1,8.8|
];
constraint_x5_x4=[
0,1,0.38|
0,2,9.4|
1,0,3.7|
1,2,6.4|
2,0,9.9|
2,1,1.8|
];
constraint_x6_x1=[
0,1,6.2|
0,2,5.4|
1,0,3.6|
1,2,9.8|
2,0,0.61|
2,1,3.4|
];
constraint_x6_x2=[
0,1,1.2|
0,2,3.7|
1,0,2.8|
1,2,5.7|
2,0,8.2|
2,1,0.38|
];
constraint_x6_x4=[
0,1,7.1|
0,2,6.7|
1,0,7.5|
1,2,7.3|
2,0,5.7|
2,1,5.1|
];
constraint_x7_x1=[
0,1,5.1|
0,2,7.4|
1,0,8.5|
1,2,0.89|
2,0,3.7|
2,1,5.9|
];
constraint_x7_x4=[
0,1,8.5|
0,2,0.31|
1,0,9.6|
1,2,1.2|
2,0,8|
2,1,5.2|
];
constraint_x8_x1=[
0,1,7.7|
0,2,0.91|
1,0,7.8|
1,2,0.12|
2,0,4.4|
2,1,0.45|
];
constraint_x8_x4=[
0,1,7|
0,2,6.6|
1,0,1.4|
1,2,2.3|
2,0,6.4|
2,1,8.6|
];
constraint_x8_x5=[
0,1,9.9|
0,2,4.7|
1,0,0.81|
1,2,9|
2,0,7.5|
2,1,8.4|
];
constraint_x9_x1=[
0,1,8.4|
0,2,3.3|
1,0,9.8|
1,2,5|
2,0,3.6|
2,1,9.7|
];
constraint_x9_x4=[
0,1,2.3|
0,2,8.1|
1,0,2.2|
1,2,3.6|
2,0,9.1|
2,1,7.6|
];
constraint_x9_x5=[
0,1,2.9|
0,2,2.7|
1,0,6.6|
1,2,3.7|
2,0,6.9|
2,1,3.7|
];
constraint_x9_x6=[
0,1,9.4|
0,2,5.3|
1,0,6.6|
1,2,6.4|
2,0,4.5|
2,1,4.8|
];
constraint_x9_x8=[
0,1,8.3|
0,2,9.3|
1,0,5.5|
1,2,6.4|
2,0,2.4|
2,1,3.2|
];
constraint_x10_x3=[
0,1,9.9|
0,2,4.9|
1,0,4.1|
1,2,1.9|
2,0,6.1|
2,1,8.2|
];
constraint_x10_x5=[
0,1,7.7|
0,2,2.8|
1,0,3.5|
1,2,5.8|
2,0,4.1|
2,1,9.2|
];
constraint_x10_x6=[
0,1,5.1|
0,2,0.41|
1,0,7.4|
1,2,0.24|
2,0,7.2|
2,1,2.3|
];
constraint_x1_y1=[
0,0,7.6|
0,1,6.1|
0,2,2.4|
1,0,6.9|
1,1,9.1|
1,2,6.3|
2,0,1.2|
2,1,5.1|
2,2,6.5|
];
constraint_x2_y2=[
0,0,9|
0,1,2.7|
0,2,5|
1,0,4.5|
1,1,7.4|
1,2,6.3|
2,0,0.19|
2,1,4|
2,2,8.4|
];
initial_distribution_y1=[0.23,0.091,0.68];
initial_distribution_y2=[0.32,0.36,0.32];
transition_y1=[
0.36,0.13,0.51|
0.46,0.078,0.46|
0.37,0.27,0.35|
];
transition_y2=[
0.41,0.084,0.51|
0.33,0.21,0.46|
0.28,0.41,0.3|
];
